(declare-const X String)
; /\x2eppsx([\?\x5c\x2f]|$)/smiU
(assert (not (str.in_re X (re.++ (str.to_re "/.ppsx") (re.union (str.to_re "?") (str.to_re "\u{5c}") (str.to_re "/")) (str.to_re "/smiU\u{a}")))))
; /\x2exps([\?\x5c\x2f]|$)/smiU
(assert (not (str.in_re X (re.++ (str.to_re "/.xps") (re.union (str.to_re "?") (str.to_re "\u{5c}") (str.to_re "/")) (str.to_re "/smiU\u{a}")))))
; User-Agent\x3A\s+\x7D\x7BPassword\x3AAnal
(assert (not (str.in_re X (re.++ (str.to_re "User-Agent:") (re.+ (re.union (str.to_re " ") (str.to_re "\u{9}") (str.to_re "\u{a}") (str.to_re "\u{c}") (str.to_re "\u{d}"))) (str.to_re "}{Password:\u{1b}Anal\u{a}")))))
; RootviewNetControl\x2EServerdata2\.activshopper\.com
(assert (str.in_re X (str.to_re "RootviewNetControl.Server\u{13}data2.activshopper.com\u{a}")))
; ^(\+?)(\d{2,4})(\s?)(\-?)((\(0\))?)(\s?)(\d{2})(\s?)(\-?)(\d{3})(\s?)(\-?)(\d{2})(\s?)(\-?)(\d{2})
(assert (str.in_re X (re.++ (re.opt (str.to_re "+")) ((_ re.loop 2 4) (re.range "0" "9")) (re.opt (re.union (str.to_re " ") (str.to_re "\u{9}") (str.to_re "\u{a}") (str.to_re "\u{c}") (str.to_re "\u{d}"))) (re.opt (str.to_re "-")) (re.opt (str.to_re "(0)")) (re.opt (re.union (str.to_re " ") (str.to_re "\u{9}") (str.to_re "\u{a}") (str.to_re "\u{c}") (str.to_re "\u{d}"))) ((_ re.loop 2 2) (re.range "0" "9")) (re.opt (re.union (str.to_re " ") (str.to_re "\u{9}") (str.to_re "\u{a}") (str.to_re "\u{c}") (str.to_re "\u{d}"))) (re.opt (str.to_re "-")) ((_ re.loop 3 3) (re.range "0" "9")) (re.opt (re.union (str.to_re " ") (str.to_re "\u{9}") (str.to_re "\u{a}") (str.to_re "\u{c}") (str.to_re "\u{d}"))) (re.opt (str.to_re "-")) ((_ re.loop 2 2) (re.range "0" "9")) (re.opt (re.union (str.to_re " ") (str.to_re "\u{9}") (str.to_re "\u{a}") (str.to_re "\u{c}") (str.to_re "\u{d}"))) (re.opt (str.to_re "-")) ((_ re.loop 2 2) (re.range "0" "9")) (str.to_re "\u{a}"))))
(check-sat)

(exit)
